c "555839.clq"
p edge 200 784
e 1 5
e 1 6
e 1 7
e 1 12
e 1 13
e 1 26
e 1 27
e 1 32
e 1 57
e 1 71
e 1 121
e 1 175
e 1 187
e 2 5
e 2 6
e 2 7
e 2 8
e 2 9
e 2 10
e 2 11
e 2 13
e 2 14
e 2 15
e 2 20
e 2 21
e 2 23
e 2 27
e 2 30
e 2 32
e 2 34
e 2 38
e 2 46
e 2 48
e 2 49
e 2 52
e 2 54
e 2 56
e 2 58
e 2 59
e 2 61
e 2 64
e 2 67
e 2 68
e 2 73
e 2 78
e 2 79
e 2 80
e 2 84
e 2 85
e 2 89
e 2 96
e 2 98
e 2 114
e 2 128
e 2 129
e 2 130
e 2 132
e 2 135
e 2 136
e 2 138
e 2 140
e 2 148
e 2 153
e 2 154
e 2 159
e 2 163
e 2 170
e 2 171
e 2 188
e 3 5
e 3 8
e 3 9
e 3 12
e 3 38
e 3 51
e 3 54
e 3 63
e 3 90
e 3 130
e 3 155
e 3 169
e 3 179
e 4 5
e 4 6
e 4 7
e 4 10
e 4 14
e 4 15
e 4 24
e 4 39
e 4 41
e 4 50
e 4 55
e 4 74
e 4 75
e 4 81
e 4 88
e 4 93
e 4 101
e 4 118
e 4 134
e 4 147
e 4 157
e 4 168
e 4 190
e 4 192
e 5 6
e 5 7
e 5 9
e 5 13
e 5 14
e 5 15
e 5 16
e 5 18
e 5 20
e 5 24
e 5 25
e 5 29
e 5 31
e 5 32
e 5 35
e 5 36
e 5 38
e 5 45
e 5 47
e 5 53
e 5 59
e 5 61
e 5 70
e 5 74
e 5 88
e 5 97
e 5 99
e 5 104
e 5 108
e 5 154
e 5 158
e 5 166
e 5 173
e 5 184
e 5 195
e 5 197
e 6 8
e 6 17
e 6 22
e 6 25
e 6 35
e 6 37
e 6 40
e 6 44
e 6 64
e 6 73
e 6 77
e 6 85
e 6 87
e 6 117
e 6 120
e 6 121
e 6 153
e 6 162
e 7 8
e 7 9
e 7 10
e 7 11
e 7 14
e 7 16
e 7 18
e 7 19
e 7 49
e 7 52
e 7 60
e 7 61
e 7 70
e 7 72
e 7 77
e 7 90
e 7 95
e 7 101
e 7 104
e 7 114
e 7 131
e 7 136
e 7 147
e 7 153
e 7 154
e 7 167
e 7 183
e 7 184
e 7 187
e 7 193
e 8 11
e 8 13
e 8 20
e 8 24
e 8 30
e 8 34
e 8 39
e 8 42
e 8 45
e 8 48
e 8 56
e 8 66
e 8 80
e 8 82
e 8 85
e 8 86
e 8 111
e 8 113
e 8 126
e 8 144
e 8 184
e 8 191
e 8 192
e 8 199
e 9 10
e 9 12
e 9 17
e 9 19
e 9 23
e 9 24
e 9 27
e 9 31
e 9 32
e 9 39
e 9 41
e 9 45
e 9 53
e 9 54
e 9 57
e 9 68
e 9 71
e 9 75
e 9 76
e 9 78
e 9 89
e 9 91
e 9 96
e 9 100
e 9 111
e 9 118
e 9 120
e 9 127
e 9 156
e 9 164
e 9 165
e 9 194
e 9 197
e 9 200
e 10 11
e 10 12
e 10 16
e 10 17
e 10 18
e 10 21
e 10 29
e 10 31
e 10 40
e 10 47
e 10 48
e 10 56
e 10 68
e 10 94
e 10 97
e 10 115
e 10 126
e 10 143
e 10 149
e 10 189
e 10 190
e 11 15
e 11 18
e 11 22
e 11 42
e 11 47
e 11 158
e 11 164
e 11 167
e 11 186
e 11 187
e 12 16
e 12 19
e 12 20
e 12 23
e 12 27
e 12 28
e 12 33
e 12 35
e 12 38
e 12 40
e 12 46
e 12 50
e 12 54
e 12 77
e 12 83
e 12 91
e 12 92
e 12 102
e 12 107
e 12 115
e 12 132
e 12 133
e 12 134
e 12 148
e 12 152
e 12 157
e 12 165
e 12 182
e 12 185
e 12 192
e 12 193
e 13 25
e 13 28
e 13 73
e 13 181
e 14 19
e 14 22
e 14 23
e 14 26
e 14 109
e 14 125
e 14 143
e 15 76
e 16 17
e 16 22
e 16 26
e 16 33
e 16 35
e 16 55
e 16 67
e 16 70
e 16 74
e 16 78
e 16 106
e 16 126
e 16 162
e 16 176
e 17 28
e 17 29
e 17 47
e 17 52
e 17 75
e 17 84
e 17 91
e 17 93
e 17 94
e 17 96
e 17 97
e 17 101
e 17 105
e 17 119
e 17 140
e 17 144
e 17 167
e 17 195
e 17 198
e 18 21
e 18 33
e 18 37
e 18 42
e 18 63
e 18 70
e 18 71
e 18 93
e 18 107
e 18 123
e 18 135
e 19 28
e 19 34
e 19 36
e 19 43
e 19 46
e 19 79
e 19 82
e 19 112
e 19 113
e 19 127
e 19 141
e 19 183
e 20 21
e 20 25
e 20 26
e 20 30
e 20 43
e 20 58
e 20 62
e 20 67
e 20 83
e 20 86
e 20 108
e 20 110
e 20 137
e 20 173
e 20 177
e 20 178
e 20 193
e 21 92
e 21 102
e 21 183
e 22 36
e 22 51
e 22 69
e 22 75
e 22 90
e 22 97
e 22 106
e 22 116
e 22 162
e 23 55
e 23 72
e 23 115
e 23 172
e 24 33
e 24 37
e 24 60
e 24 68
e 24 69
e 24 87
e 24 89
e 24 92
e 24 119
e 24 124
e 24 137
e 24 183
e 25 34
e 25 100
e 25 102
e 25 136
e 25 181
e 25 186
e 26 57
e 26 59
e 26 86
e 26 107
e 26 113
e 26 128
e 26 133
e 26 134
e 26 141
e 26 170
e 27 30
e 27 31
e 27 37
e 27 39
e 27 51
e 27 52
e 27 67
e 27 125
e 28 29
e 28 69
e 28 84
e 28 137
e 29 44
e 30 82
e 30 122
e 30 146
e 31 36
e 31 49
e 31 166
e 32 41
e 32 43
e 32 64
e 32 66
e 32 81
e 32 99
e 32 109
e 32 138
e 32 154
e 32 190
e 33 43
e 33 55
e 33 62
e 33 63
e 33 71
e 33 83
e 33 153
e 33 161
e 33 163
e 33 177
e 33 178
e 33 199
e 34 50
e 34 98
e 34 111
e 34 132
e 34 138
e 34 145
e 35 62
e 35 105
e 35 174
e 35 180
e 36 58
e 36 61
e 36 65
e 36 73
e 36 79
e 36 104
e 36 179
e 36 200
e 37 40
e 37 57
e 37 72
e 37 83
e 37 84
e 37 85
e 37 89
e 37 92
e 37 156
e 37 163
e 37 169
e 37 172
e 37 175
e 38 63
e 38 95
e 38 116
e 38 117
e 38 157
e 38 193
e 39 41
e 39 44
e 39 50
e 39 53
e 39 66
e 39 69
e 39 98
e 39 103
e 39 139
e 39 151
e 39 152
e 39 161
e 39 169
e 39 177
e 40 42
e 40 44
e 40 48
e 40 60
e 40 72
e 40 96
e 40 103
e 40 136
e 40 159
e 40 164
e 40 197
e 41 49
e 41 51
e 41 79
e 41 120
e 41 129
e 41 146
e 41 151
e 42 45
e 42 62
e 42 76
e 42 78
e 42 122
e 42 177
e 42 180
e 43 112
e 43 152
e 44 46
e 44 82
e 44 91
e 44 142
e 44 145
e 44 146
e 44 162
e 45 87
e 45 88
e 45 122
e 45 159
e 45 188
e 45 191
e 46 122
e 46 137
e 47 58
e 47 76
e 47 80
e 47 124
e 48 53
e 48 59
e 48 100
e 48 108
e 48 118
e 48 124
e 48 129
e 48 135
e 48 148
e 48 149
e 48 151
e 48 174
e 49 56
e 49 65
e 49 105
e 49 131
e 50 65
e 50 147
e 50 156
e 50 160
e 50 179
e 51 198
e 52 60
e 52 80
e 52 88
e 53 65
e 54 77
e 54 125
e 54 160
e 54 165
e 54 174
e 55 66
e 55 93
e 55 106
e 55 113
e 55 145
e 55 168
e 56 139
e 56 173
e 57 190
e 57 196
e 58 107
e 58 146
e 59 87
e 59 101
e 59 127
e 59 130
e 59 150
e 60 95
e 61 90
e 61 151
e 61 176
e 62 64
e 62 74
e 62 141
e 62 143
e 64 104
e 64 109
e 64 116
e 64 135
e 64 142
e 64 174
e 67 110
e 67 116
e 68 110
e 68 112
e 68 121
e 68 133
e 68 175
e 69 86
e 69 182
e 69 196
e 70 164
e 70 179
e 71 189
e 72 81
e 72 102
e 72 109
e 73 147
e 73 160
e 74 99
e 74 118
e 74 123
e 74 148
e 74 192
e 75 150
e 75 187
e 76 95
e 76 103
e 77 188
e 78 106
e 79 81
e 79 170
e 79 182
e 79 194
e 80 94
e 80 125
e 80 130
e 80 150
e 80 171
e 80 180
e 81 105
e 81 142
e 81 186
e 82 94
e 82 108
e 82 123
e 82 138
e 83 168
e 84 194
e 85 186
e 86 200
e 87 142
e 88 112
e 88 171
e 89 119
e 89 124
e 90 99
e 90 140
e 92 100
e 94 144
e 95 111
e 95 114
e 95 126
e 95 129
e 95 155
e 95 167
e 96 98
e 96 127
e 96 133
e 96 180
e 97 117
e 97 128
e 98 110
e 98 191
e 99 103
e 99 175
e 99 185
e 101 158
e 102 114
e 105 123
e 105 131
e 105 157
e 107 163
e 108 120
e 108 128
e 108 172
e 108 173
e 110 149
e 110 150
e 112 160
e 112 176
e 113 117
e 113 134
e 113 171
e 113 194
e 114 115
e 114 158
e 114 166
e 115 121
e 115 168
e 116 119
e 116 185
e 121 166
e 123 161
e 124 143
e 124 198
e 125 191
e 125 196
e 126 131
e 126 139
e 126 140
e 126 145
e 126 161
e 126 178
e 126 198
e 127 184
e 128 189
e 130 132
e 130 200
e 133 189
e 134 156
e 135 139
e 135 144
e 135 155
e 136 196
e 137 152
e 138 176
e 139 141
e 139 188
e 140 149
e 143 155
e 143 165
e 144 195
e 150 170
e 153 181
e 155 185
e 156 159
e 156 199
e 157 182
e 157 197
e 161 199
e 163 169
e 166 172
e 168 178
e 174 181
e 177 195
